param set_len = 100;
param target := 858991;
set values := 30532, 16996, 6370, 30550, 12297, 9081, 547, 31044, 18881, 28444, 27093, 13230, 21953, 10742, 31365, 21619, 11985, 19345, 25871, 32012, 28824, 3072, 5774, 23740, 8775, 9307, 22137, 16743, 30398, 27447, 15083, 2063, 15217, 26835, 4073, 3236, 2006, 19206, 4421, 16771, 1788, 21981, 30095, 6364, 25136, 4885, 19028, 22603, 16818, 17435, 29021, 24777, 22703, 16167, 31870, 2833, 17075, 24249, 5060, 32110, 7585, 31345, 31756, 10463, 14630, 2293, 32548, 6029, 20245, 20769, 19034, 21313, 19940, 13739, 26846, 16109, 32483, 13041, 15704, 27019, 5395, 22653, 25380, 30391, 15000, 30152, 12839, 28715, 21876, 29085, 10482, 12429, 21873, 222, 16467, 18356, 16529, 4462, 5538, 10978, ;
